NAME : n40w180.004.409.tour
COMMENT : Length = 409
COMMENT : Found by LKH [Keld Helsgaun] Tue May  2 05:47:22 2017
TYPE : TOUR
DIMENSION : 41
TOUR_SECTION
1
37
16
26
21
3
11
27
5
31
28
25
4
40
9
39
34
2
35
15
29
32
38
10
20
12
23
6
13
30
24
17
22
14
8
33
7
36
18
41
19
-1
EOF
